23
61 72 53 52 117
10 31 5 34 101
25 40 17 26 104
86 51 21 82 73
102 87 97 18 48
2 3 8 30 38
15 19 49 106 69
13 12 20 71 95
58 55 74 100 83 79
4 44 59 24 65
90 76 39 99 113
33 63 64 109 114 68
56 80 93 70 42 115
111 96 119 9 28 116
27 36 23 1 60
32 47 22 37 75
66 7 67 105 110 112
14 43 6 35 54
118 103 50 45 78 81
77 84 89 41 62 120
29 11 16 98 94
57 88 85 107 46 92
108 91
